c FILE: n200d20/random-n200-d20-4.col

p edge 200 3980
e 1 8
e 1 12
e 1 14
e 1 15
e 1 31
e 1 39
e 1 43
e 1 45
e 1 55
e 1 59
e 1 66
e 1 69
e 1 78
e 1 81
e 1 89
e 1 105
e 1 121
e 1 124
e 1 144
e 1 152
e 1 161
e 1 168
e 1 171
e 1 173
e 1 180
e 2 9
e 2 17
e 2 19
e 2 27
e 2 30
e 2 42
e 2 46
e 2 47
e 2 60
e 2 61
e 2 65
e 2 66
e 2 67
e 2 75
e 2 78
e 2 92
e 2 94
e 2 98
e 2 113
e 2 126
e 2 132
e 2 134
e 2 137
e 2 138
e 2 139
e 2 158
e 2 169
e 2 173
e 2 187
e 2 192
e 2 194
e 3 13
e 3 18
e 3 19
e 3 20
e 3 21
e 3 22
e 3 28
e 3 29
e 3 33
e 3 38
e 3 44
e 3 47
e 3 56
e 3 59
e 3 66
e 3 82
e 3 86
e 3 88
e 3 93
e 3 95
e 3 102
e 3 111
e 3 114
e 3 116
e 3 133
e 3 134
e 3 143
e 3 150
e 3 151
e 3 168
e 3 177
e 3 180
e 3 187
e 3 188
e 4 12
e 4 15
e 4 17
e 4 32
e 4 35
e 4 42
e 4 45
e 4 53
e 4 60
e 4 68
e 4 71
e 4 73
e 4 74
e 4 76
e 4 84
e 4 92
e 4 97
e 4 102
e 4 103
e 4 108
e 4 114
e 4 121
e 4 136
e 4 137
e 4 139
e 4 141
e 4 148
e 4 163
e 4 165
e 4 166
e 4 173
e 4 175
e 4 178
e 4 188
e 4 195
e 4 197
e 4 199
e 5 7
e 5 9
e 5 16
e 5 26
e 5 32
e 5 36
e 5 41
e 5 46
e 5 51
e 5 60
e 5 65
e 5 67
e 5 85
e 5 88
e 5 90
e 5 94
e 5 95
e 5 96
e 5 97
e 5 98
e 5 104
e 5 124
e 5 127
e 5 128
e 5 140
e 5 143
e 5 144
e 5 149
e 5 153
e 5 158
e 5 163
e 5 165
e 5 171
e 5 173
e 5 175
e 5 176
e 5 186
e 5 187
e 5 189
e 5 196
e 5 197
e 5 199
e 6 7
e 6 9
e 6 10
e 6 11
e 6 12
e 6 16
e 6 26
e 6 39
e 6 40
e 6 41
e 6 44
e 6 47
e 6 48
e 6 52
e 6 53
e 6 55
e 6 59
e 6 64
e 6 71
e 6 72
e 6 74
e 6 79
e 6 81
e 6 88
e 6 92
e 6 94
e 6 104
e 6 122
e 6 126
e 6 128
e 6 130
e 6 140
e 6 143
e 6 150
e 6 151
e 6 158
e 6 176
e 6 183
e 6 186
e 7 10
e 7 13
e 7 30
e 7 37
e 7 41
e 7 44
e 7 45
e 7 69
e 7 71
e 7 73
e 7 77
e 7 84
e 7 85
e 7 92
e 7 105
e 7 115
e 7 118
e 7 124
e 7 129
e 7 135
e 7 137
e 7 140
e 7 145
e 7 158
e 7 160
e 7 162
e 7 186
e 7 191
e 8 20
e 8 30
e 8 33
e 8 43
e 8 55
e 8 56
e 8 61
e 8 62
e 8 65
e 8 66
e 8 68
e 8 73
e 8 74
e 8 75
e 8 76
e 8 91
e 8 95
e 8 98
e 8 103
e 8 106
e 8 107
e 8 108
e 8 125
e 8 126
e 8 131
e 8 138
e 8 139
e 8 140
e 8 144
e 8 150
e 8 151
e 8 152
e 8 158
e 8 182
e 8 186
e 8 190
e 8 193
e 8 194
e 8 195
e 8 198
e 9 11
e 9 23
e 9 26
e 9 28
e 9 31
e 9 45
e 9 47
e 9 48
e 9 56
e 9 58
e 9 62
e 9 64
e 9 65
e 9 70
e 9 74
e 9 78
e 9 84
e 9 104
e 9 105
e 9 106
e 9 111
e 9 113
e 9 118
e 9 121
e 9 127
e 9 136
e 9 142
e 9 143
e 9 144
e 9 149
e 9 151
e 9 152
e 9 157
e 9 160
e 9 161
e 9 163
e 9 164
e 9 170
e 9 175
e 9 176
e 9 178
e 9 184
e 9 186
e 9 194
e 9 197
e 10 11
e 10 12
e 10 25
e 10 28
e 10 40
e 10 42
e 10 49
e 10 52
e 10 54
e 10 56
e 10 64
e 10 74
e 10 76
e 10 77
e 10 78
e 10 79
e 10 84
e 10 87
e 10 88
e 10 92
e 10 103
e 10 111
e 10 114
e 10 124
e 10 127
e 10 136
e 10 149
e 10 152
e 10 156
e 10 174
e 10 175
e 10 179
e 10 193
e 10 195
e 11 12
e 11 16
e 11 17
e 11 23
e 11 34
e 11 40
e 11 41
e 11 44
e 11 45
e 11 54
e 11 58
e 11 60
e 11 62
e 11 70
e 11 77
e 11 79
e 11 88
e 11 96
e 11 99
e 11 102
e 11 114
e 11 117
e 11 120
e 11 122
e 11 124
e 11 130
e 11 133
e 11 134
e 11 145
e 11 151
e 11 153
e 11 154
e 11 155
e 11 156
e 11 159
e 11 166
e 11 174
e 11 175
e 11 179
e 11 181
e 11 186
e 11 190
e 11 196
e 12 14
e 12 26
e 12 35
e 12 46
e 12 47
e 12 54
e 12 55
e 12 56
e 12 58
e 12 62
e 12 66
e 12 68
e 12 79
e 12 87
e 12 91
e 12 94
e 12 95
e 12 100
e 12 116
e 12 120
e 12 125
e 12 126
e 12 127
e 12 134
e 12 153
e 12 156
e 12 168
e 12 180
e 12 183
e 12 186
e 12 187
e 12 189
e 12 191
e 13 16
e 13 18
e 13 29
e 13 33
e 13 39
e 13 43
e 13 50
e 13 54
e 13 57
e 13 58
e 13 59
e 13 63
e 13 68
e 13 69
e 13 72
e 13 77
e 13 80
e 13 83
e 13 87
e 13 89
e 13 92
e 13 94
e 13 96
e 13 101
e 13 103
e 13 107
e 13 118
e 13 120
e 13 128
e 13 133
e 13 137
e 13 140
e 13 145
e 13 160
e 13 165
e 13 170
e 13 177
e 13 187
e 13 195
e 13 198
e 14 16
e 14 18
e 14 23
e 14 26
e 14 33
e 14 38
e 14 41
e 14 45
e 14 48
e 14 49
e 14 61
e 14 63
e 14 73
e 14 77
e 14 82
e 14 84
e 14 86
e 14 103
e 14 105
e 14 113
e 14 116
e 14 122
e 14 126
e 14 148
e 14 151
e 14 152
e 14 153
e 14 170
e 14 178
e 14 181
e 14 187
e 14 196
e 14 199
e 15 20
e 15 22
e 15 28
e 15 29
e 15 35
e 15 36
e 15 38
e 15 58
e 15 59
e 15 63
e 15 64
e 15 69
e 15 74
e 15 75
e 15 83
e 15 90
e 15 92
e 15 93
e 15 97
e 15 100
e 15 104
e 15 106
e 15 109
e 15 110
e 15 117
e 15 120
e 15 121
e 15 134
e 15 141
e 15 151
e 15 152
e 15 153
e 15 154
e 15 156
e 15 164
e 15 165
e 15 168
e 15 169
e 15 172
e 15 174
e 15 178
e 15 186
e 15 187
e 15 192
e 15 193
e 15 197
e 15 198
e 16 20
e 16 26
e 16 30
e 16 34
e 16 35
e 16 48
e 16 51
e 16 57
e 16 62
e 16 74
e 16 79
e 16 82
e 16 91
e 16 101
e 16 102
e 16 107
e 16 108
e 16 118
e 16 123
e 16 127
e 16 132
e 16 134
e 16 136
e 16 137
e 16 147
e 16 151
e 16 154
e 16 157
e 16 160
e 16 166
e 16 168
e 16 170
e 16 171
e 16 180
e 16 181
e 16 189
e 16 194
e 16 195
e 16 196
e 16 197
e 17 20
e 17 21
e 17 22
e 17 25
e 17 26
e 17 28
e 17 34
e 17 37
e 17 39
e 17 62
e 17 63
e 17 77
e 17 82
e 17 88
e 17 89
e 17 92
e 17 106
e 17 108
e 17 113
e 17 114
e 17 118
e 17 122
e 17 129
e 17 135
e 17 142
e 17 143
e 17 144
e 17 148
e 17 152
e 17 155
e 17 159
e 17 168
e 17 172
e 17 174
e 17 185
e 17 186
e 17 195
e 17 198
e 17 200
e 18 27
e 18 33
e 18 36
e 18 58
e 18 67
e 18 74
e 18 81
e 18 92
e 18 100
e 18 106
e 18 108
e 18 111
e 18 117
e 18 123
e 18 133
e 18 134
e 18 143
e 18 148
e 18 159
e 18 160
e 18 167
e 18 173
e 18 183
e 18 186
e 18 187
e 18 188
e 18 194
e 18 198
e 19 27
e 19 28
e 19 34
e 19 44
e 19 49
e 19 50
e 19 51
e 19 54
e 19 58
e 19 59
e 19 65
e 19 68
e 19 70
e 19 73
e 19 74
e 19 93
e 19 97
e 19 100
e 19 105
e 19 108
e 19 112
e 19 113
e 19 116
e 19 129
e 19 148
e 19 151
e 19 155
e 19 197
e 19 198
e 20 25
e 20 32
e 20 35
e 20 40
e 20 48
e 20 51
e 20 55
e 20 59
e 20 77
e 20 78
e 20 79
e 20 81
e 20 86
e 20 97
e 20 104
e 20 111
e 20 116
e 20 117
e 20 118
e 20 120
e 20 122
e 20 127
e 20 132
e 20 137
e 20 140
e 20 143
e 20 145
e 20 146
e 20 152
e 20 155
e 20 166
e 20 168
e 20 171
e 20 172
e 20 173
e 20 182
e 20 187
e 20 188
e 20 192
e 20 193
e 20 195
e 21 22
e 21 23
e 21 26
e 21 27
e 21 32
e 21 39
e 21 42
e 21 48
e 21 55
e 21 57
e 21 60
e 21 76
e 21 93
e 21 102
e 21 103
e 21 109
e 21 118
e 21 121
e 21 131
e 21 136
e 21 141
e 21 148
e 21 149
e 21 150
e 21 153
e 21 165
e 21 166
e 21 173
e 21 179
e 21 192
e 21 199
e 21 200
e 22 23
e 22 25
e 22 32
e 22 33
e 22 43
e 22 46
e 22 52
e 22 69
e 22 72
e 22 74
e 22 77
e 22 90
e 22 97
e 22 104
e 22 107
e 22 109
e 22 111
e 22 112
e 22 114
e 22 116
e 22 117
e 22 118
e 22 120
e 22 135
e 22 138
e 22 147
e 22 148
e 22 150
e 22 155
e 22 158
e 22 159
e 22 177
e 22 180
e 22 185
e 22 189
e 22 193
e 22 194
e 22 198
e 22 200
e 23 24
e 23 28
e 23 29
e 23 34
e 23 40
e 23 50
e 23 53
e 23 56
e 23 62
e 23 65
e 23 66
e 23 67
e 23 70
e 23 72
e 23 73
e 23 75
e 23 83
e 23 84
e 23 89
e 23 90
e 23 107
e 23 117
e 23 121
e 23 125
e 23 126
e 23 131
e 23 141
e 23 142
e 23 146
e 23 153
e 23 154
e 23 161
e 23 163
e 23 170
e 23 175
e 23 185
e 23 186
e 23 198
e 24 25
e 24 27
e 24 29
e 24 30
e 24 47
e 24 53
e 24 60
e 24 63
e 24 67
e 24 71
e 24 85
e 24 91
e 24 100
e 24 102
e 24 119
e 24 120
e 24 123
e 24 125
e 24 131
e 24 148
e 24 157
e 24 161
e 24 162
e 24 164
e 24 168
e 24 173
e 24 182
e 24 183
e 24 184
e 24 186
e 24 193
e 24 194
e 24 195
e 25 29
e 25 30
e 25 32
e 25 34
e 25 38
e 25 41
e 25 42
e 25 43
e 25 46
e 25 49
e 25 60
e 25 61
e 25 62
e 25 67
e 25 69
e 25 71
e 25 73
e 25 83
e 25 117
e 25 118
e 25 124
e 25 125
e 25 132
e 25 134
e 25 138
e 25 139
e 25 144
e 25 147
e 25 148
e 25 156
e 25 163
e 25 173
e 25 176
e 25 184
e 25 185
e 25 188
e 25 189
e 25 190
e 25 191
e 26 28
e 26 31
e 26 38
e 26 57
e 26 69
e 26 75
e 26 79
e 26 81
e 26 85
e 26 92
e 26 94
e 26 96
e 26 102
e 26 112
e 26 113
e 26 131
e 26 133
e 26 134
e 26 139
e 26 149
e 26 150
e 26 158
e 26 160
e 26 163
e 26 166
e 26 169
e 26 192
e 26 193
e 26 200
e 27 33
e 27 38
e 27 48
e 27 57
e 27 62
e 27 64
e 27 65
e 27 67
e 27 69
e 27 82
e 27 85
e 27 89
e 27 92
e 27 93
e 27 99
e 27 101
e 27 103
e 27 116
e 27 120
e 27 122
e 27 125
e 27 131
e 27 142
e 27 148
e 27 155
e 27 162
e 27 168
e 27 175
e 27 178
e 27 188
e 27 193
e 27 196
e 27 199
e 27 200
e 28 30
e 28 32
e 28 41
e 28 43
e 28 45
e 28 48
e 28 49
e 28 61
e 28 67
e 28 70
e 28 73
e 28 74
e 28 83
e 28 88
e 28 90
e 28 92
e 28 93
e 28 95
e 28 98
e 28 101
e 28 102
e 28 105
e 28 109
e 28 114
e 28 117
e 28 130
e 28 147
e 28 163
e 28 173
e 28 174
e 28 181
e 28 184
e 28 197
e 28 199
e 29 34
e 29 37
e 29 39
e 29 41
e 29 49
e 29 50
e 29 59
e 29 64
e 29 70
e 29 71
e 29 73
e 29 77
e 29 79
e 29 82
e 29 84
e 29 94
e 29 97
e 29 99
e 29 100
e 29 110
e 29 115
e 29 117
e 29 119
e 29 139
e 29 142
e 29 151
e 29 153
e 29 156
e 29 159
e 29 161
e 29 171
e 29 174
e 29 175
e 29 180
e 29 182
e 29 190
e 29 193
e 29 195
e 30 32
e 30 44
e 30 48
e 30 56
e 30 59
e 30 67
e 30 80
e 30 81
e 30 88
e 30 89
e 30 90
e 30 91
e 30 92
e 30 101
e 30 108
e 30 111
e 30 121
e 30 123
e 30 124
e 30 138
e 30 149
e 30 154
e 30 156
e 30 158
e 30 166
e 30 167
e 30 168
e 30 171
e 30 172
e 30 178
e 30 185
e 30 187
e 30 193
e 30 194
e 30 195
e 30 198
e 30 199
e 31 35
e 31 41
e 31 42
e 31 49
e 31 55
e 31 60
e 31 64
e 31 65
e 31 70
e 31 72
e 31 74
e 31 86
e 31 97
e 31 104
e 31 105
e 31 107
e 31 109
e 31 112
e 31 114
e 31 115
e 31 118
e 31 119
e 31 127
e 31 132
e 31 135
e 31 137
e 31 141
e 31 148
e 31 149
e 31 156
e 31 167
e 31 168
e 31 173
e 31 179
e 31 191
e 31 194
e 32 33
e 32 37
e 32 39
e 32 41
e 32 42
e 32 47
e 32 55
e 32 57
e 32 64
e 32 65
e 32 73
e 32 75
e 32 79
e 32 82
e 32 90
e 32 91
e 32 115
e 32 117
e 32 121
e 32 129
e 32 131
e 32 138
e 32 140
e 32 145
e 32 147
e 32 150
e 32 157
e 32 165
e 32 167
e 32 177
e 32 188
e 32 200
e 33 47
e 33 52
e 33 54
e 33 55
e 33 76
e 33 102
e 33 105
e 33 109
e 33 111
e 33 115
e 33 118
e 33 122
e 33 125
e 33 143
e 33 147
e 33 152
e 33 154
e 33 161
e 33 167
e 33 170
e 33 174
e 33 180
e 33 191
e 34 39
e 34 42
e 34 46
e 34 59
e 34 68
e 34 75
e 34 82
e 34 83
e 34 101
e 34 110
e 34 117
e 34 127
e 34 144
e 34 156
e 34 159
e 34 160
e 34 166
e 34 174
e 34 178
e 34 183
e 34 192
e 34 193
e 34 195
e 34 198
e 34 199
e 35 36
e 35 38
e 35 40
e 35 46
e 35 64
e 35 67
e 35 71
e 35 72
e 35 78
e 35 92
e 35 96
e 35 106
e 35 108
e 35 109
e 35 113
e 35 130
e 35 138
e 35 144
e 35 146
e 35 147
e 35 150
e 35 152
e 35 154
e 35 157
e 35 169
e 35 182
e 35 196
e 36 39
e 36 43
e 36 44
e 36 47
e 36 50
e 36 52
e 36 53
e 36 54
e 36 55
e 36 57
e 36 63
e 36 65
e 36 69
e 36 70
e 36 73
e 36 76
e 36 79
e 36 87
e 36 98
e 36 100
e 36 104
e 36 140
e 36 158
e 36 160
e 36 162
e 36 166
e 36 167
e 36 170
e 36 173
e 36 177
e 36 178
e 36 179
e 36 181
e 36 182
e 36 186
e 36 187
e 36 190
e 36 194
e 36 196
e 36 200
e 37 39
e 37 47
e 37 55
e 37 58
e 37 61
e 37 68
e 37 83
e 37 96
e 37 97
e 37 100
e 37 103
e 37 104
e 37 105
e 37 109
e 37 111
e 37 119
e 37 120
e 37 124
e 37 127
e 37 129
e 37 131
e 37 137
e 37 141
e 37 143
e 37 144
e 37 148
e 37 151
e 37 152
e 37 155
e 37 158
e 37 159
e 37 161
e 37 164
e 37 173
e 37 179
e 37 180
e 37 183
e 37 186
e 37 189
e 37 191
e 37 193
e 37 196
e 37 197
e 37 199
e 38 44
e 38 54
e 38 56
e 38 58
e 38 62
e 38 63
e 38 66
e 38 67
e 38 73
e 38 74
e 38 75
e 38 76
e 38 83
e 38 84
e 38 89
e 38 100
e 38 103
e 38 108
e 38 116
e 38 120
e 38 124
e 38 138
e 38 140
e 38 147
e 38 149
e 38 152
e 38 160
e 38 164
e 38 171
e 38 173
e 38 182
e 38 195
e 39 44
e 39 50
e 39 51
e 39 57
e 39 61
e 39 63
e 39 68
e 39 72
e 39 75
e 39 82
e 39 94
e 39 96
e 39 102
e 39 110
e 39 112
e 39 115
e 39 116
e 39 117
e 39 130
e 39 131
e 39 132
e 39 135
e 39 136
e 39 139
e 39 140
e 39 141
e 39 142
e 39 145
e 39 147
e 39 156
e 39 157
e 39 159
e 39 163
e 39 165
e 39 170
e 39 171
e 39 173
e 39 188
e 39 189
e 39 193
e 40 43
e 40 48
e 40 49
e 40 62
e 40 69
e 40 72
e 40 76
e 40 89
e 40 93
e 40 94
e 40 103
e 40 111
e 40 126
e 40 127
e 40 128
e 40 134
e 40 137
e 40 139
e 40 144
e 40 152
e 40 162
e 40 185
e 40 188
e 40 195
e 40 196
e 40 197
e 40 200
e 41 42
e 41 43
e 41 44
e 41 60
e 41 77
e 41 87
e 41 90
e 41 94
e 41 96
e 41 107
e 41 121
e 41 123
e 41 138
e 41 139
e 41 140
e 41 144
e 41 146
e 41 147
e 41 163
e 41 174
e 41 175
e 41 177
e 41 179
e 41 197
e 42 45
e 42 55
e 42 58
e 42 62
e 42 68
e 42 75
e 42 83
e 42 94
e 42 101
e 42 102
e 42 106
e 42 108
e 42 112
e 42 118
e 42 119
e 42 121
e 42 126
e 42 127
e 42 132
e 42 135
e 42 137
e 42 144
e 42 162
e 42 167
e 42 168
e 42 170
e 42 176
e 42 182
e 42 183
e 42 188
e 42 191
e 42 198
e 42 199
e 43 44
e 43 48
e 43 56
e 43 59
e 43 67
e 43 74
e 43 76
e 43 77
e 43 81
e 43 87
e 43 91
e 43 94
e 43 103
e 43 110
e 43 111
e 43 112
e 43 114
e 43 116
e 43 122
e 43 125
e 43 139
e 43 140
e 43 142
e 43 143
e 43 148
e 43 151
e 43 155
e 43 157
e 43 158
e 43 159
e 43 160
e 43 163
e 43 170
e 43 171
e 43 179
e 43 187
e 43 188
e 43 197
e 44 49
e 44 51
e 44 52
e 44 58
e 44 62
e 44 64
e 44 73
e 44 80
e 44 82
e 44 84
e 44 86
e 44 89
e 44 93
e 44 109
e 44 113
e 44 115
e 44 123
e 44 125
e 44 127
e 44 136
e 44 142
e 44 143
e 44 153
e 44 163
e 44 164
e 44 169
e 44 179
e 44 181
e 44 186
e 44 187
e 44 193
e 45 51
e 45 55
e 45 58
e 45 72
e 45 82
e 45 84
e 45 85
e 45 87
e 45 89
e 45 96
e 45 97
e 45 102
e 45 104
e 45 108
e 45 109
e 45 113
e 45 117
e 45 122
e 45 124
e 45 126
e 45 127
e 45 133
e 45 137
e 45 138
e 45 139
e 45 154
e 45 165
e 45 174
e 45 176
e 45 178
e 45 179
e 45 182
e 45 190
e 45 195
e 45 198
e 46 51
e 46 54
e 46 55
e 46 66
e 46 72
e 46 82
e 46 85
e 46 86
e 46 91
e 46 105
e 46 106
e 46 113
e 46 114
e 46 116
e 46 119
e 46 136
e 46 138
e 46 145
e 46 150
e 46 154
e 46 157
e 46 159
e 46 163
e 46 164
e 46 165
e 46 171
e 46 178
e 46 180
e 46 187
e 46 193
e 46 194
e 46 195
e 47 54
e 47 55
e 47 62
e 47 63
e 47 85
e 47 86
e 47 94
e 47 96
e 47 106
e 47 116
e 47 120
e 47 123
e 47 127
e 47 129
e 47 132
e 47 133
e 47 137
e 47 139
e 47 142
e 47 152
e 47 159
e 47 160
e 47 164
e 47 177
e 48 51
e 48 52
e 48 53
e 48 91
e 48 105
e 48 110
e 48 112
e 48 118
e 48 119
e 48 129
e 48 138
e 48 141
e 48 142
e 48 144
e 48 161
e 48 163
e 48 167
e 48 174
e 48 179
e 48 181
e 48 183
e 48 187
e 48 196
e 48 199
e 49 51
e 49 52
e 49 55
e 49 62
e 49 63
e 49 69
e 49 78
e 49 81
e 49 94
e 49 106
e 49 110
e 49 115
e 49 117
e 49 118
e 49 125
e 49 128
e 49 132
e 49 133
e 49 134
e 49 151
e 49 152
e 49 159
e 49 166
e 49 175
e 49 178
e 49 180
e 49 187
e 49 194
e 50 56
e 50 57
e 50 61
e 50 74
e 50 79
e 50 99
e 50 114
e 50 120
e 50 125
e 50 127
e 50 131
e 50 132
e 50 133
e 50 134
e 50 136
e 50 148
e 50 153
e 50 157
e 50 174
e 50 181
e 50 182
e 50 183
e 50 185
e 51 57
e 51 59
e 51 61
e 51 62
e 51 70
e 51 71
e 51 75
e 51 80
e 51 81
e 51 86
e 51 87
e 51 90
e 51 91
e 51 98
e 51 100
e 51 110
e 51 115
e 51 119
e 51 122
e 51 128
e 51 129
e 51 131
e 51 133
e 51 148
e 51 154
e 51 160
e 51 161
e 51 167
e 51 178
e 51 182
e 51 192
e 52 57
e 52 70
e 52 88
e 52 92
e 52 95
e 52 102
e 52 109
e 52 110
e 52 112
e 52 117
e 52 118
e 52 129
e 52 130
e 52 140
e 52 142
e 52 147
e 52 148
e 52 156
e 52 157
e 52 158
e 52 172
e 52 173
e 52 184
e 52 190
e 52 195
e 52 198
e 53 54
e 53 56
e 53 69
e 53 78
e 53 81
e 53 84
e 53 90
e 53 91
e 53 94
e 53 107
e 53 108
e 53 110
e 53 112
e 53 115
e 53 117
e 53 123
e 53 124
e 53 129
e 53 130
e 53 138
e 53 144
e 53 145
e 53 147
e 53 151
e 53 152
e 53 158
e 53 162
e 53 170
e 53 173
e 53 180
e 53 183
e 53 186
e 53 198
e 54 55
e 54 57
e 54 64
e 54 68
e 54 70
e 54 71
e 54 78
e 54 81
e 54 82
e 54 87
e 54 90
e 54 91
e 54 98
e 54 110
e 54 111
e 54 127
e 54 131
e 54 132
e 54 143
e 54 150
e 54 154
e 54 166
e 54 171
e 54 173
e 54 176
e 54 181
e 54 182
e 54 183
e 54 190
e 54 192
e 54 195
e 54 199
e 55 57
e 55 58
e 55 75
e 55 82
e 55 83
e 55 85
e 55 90
e 55 95
e 55 101
e 55 103
e 55 107
e 55 109
e 55 112
e 55 114
e 55 124
e 55 129
e 55 145
e 55 147
e 55 148
e 55 149
e 55 151
e 55 153
e 55 161
e 55 163
e 55 176
e 55 179
e 55 180
e 55 181
e 55 183
e 55 186
e 55 187
e 55 192
e 55 194
e 56 59
e 56 73
e 56 81
e 56 91
e 56 92
e 56 94
e 56 96
e 56 97
e 56 107
e 56 110
e 56 114
e 56 120
e 56 122
e 56 124
e 56 138
e 56 142
e 56 153
e 56 157
e 56 162
e 56 165
e 56 168
e 56 169
e 56 171
e 56 176
e 56 178
e 56 179
e 56 188
e 56 191
e 56 192
e 56 198
e 56 199
e 57 58
e 57 67
e 57 79
e 57 86
e 57 87
e 57 88
e 57 89
e 57 90
e 57 96
e 57 101
e 57 102
e 57 131
e 57 132
e 57 134
e 57 136
e 57 141
e 57 149
e 57 154
e 57 157
e 57 161
e 57 175
e 57 182
e 57 184
e 57 186
e 57 187
e 57 194
e 57 197
e 58 63
e 58 68
e 58 69
e 58 70
e 58 72
e 58 74
e 58 75
e 58 77
e 58 80
e 58 82
e 58 86
e 58 87
e 58 90
e 58 91
e 58 93
e 58 98
e 58 99
e 58 101
e 58 108
e 58 111
e 58 117
e 58 119
e 58 120
e 58 125
e 58 128
e 58 138
e 58 139
e 58 156
e 58 160
e 58 164
e 58 167
e 58 170
e 58 177
e 58 183
e 58 184
e 58 187
e 58 196
e 59 63
e 59 64
e 59 71
e 59 76
e 59 78
e 59 88
e 59 91
e 59 98
e 59 100
e 59 101
e 59 109
e 59 112
e 59 113
e 59 115
e 59 116
e 59 127
e 59 131
e 59 134
e 59 136
e 59 142
e 59 146
e 59 147
e 59 148
e 59 150
e 59 155
e 59 168
e 59 176
e 59 181
e 59 182
e 59 192
e 59 199
e 59 200
e 60 69
e 60 72
e 60 73
e 60 74
e 60 76
e 60 78
e 60 80
e 60 83
e 60 93
e 60 108
e 60 114
e 60 115
e 60 116
e 60 123
e 60 126
e 60 143
e 60 145
e 60 146
e 60 148
e 60 149
e 60 155
e 60 164
e 60 172
e 60 180
e 60 191
e 60 198
e 60 199
e 60 200
e 61 62
e 61 64
e 61 71
e 61 78
e 61 87
e 61 88
e 61 90
e 61 99
e 61 101
e 61 111
e 61 114
e 61 119
e 61 120
e 61 125
e 61 126
e 61 128
e 61 132
e 61 137
e 61 138
e 61 151
e 61 155
e 61 159
e 61 160
e 61 161
e 61 169
e 61 171
e 61 172
e 61 180
e 61 182
e 61 185
e 61 186
e 61 189
e 61 199
e 62 63
e 62 66
e 62 73
e 62 82
e 62 86
e 62 87
e 62 89
e 62 90
e 62 103
e 62 105
e 62 110
e 62 113
e 62 118
e 62 119
e 62 121
e 62 126
e 62 132
e 62 139
e 62 146
e 62 158
e 62 161
e 62 164
e 62 165
e 62 166
e 62 170
e 62 182
e 62 183
e 62 186
e 62 192
e 63 68
e 63 70
e 63 77
e 63 86
e 63 88
e 63 93
e 63 99
e 63 107
e 63 112
e 63 114
e 63 117
e 63 119
e 63 120
e 63 121
e 63 123
e 63 128
e 63 131
e 63 136
e 63 146
e 63 148
e 63 154
e 63 165
e 63 170
e 63 172
e 63 173
e 63 186
e 63 197
e 64 74
e 64 75
e 64 80
e 64 96
e 64 98
e 64 120
e 64 123
e 64 135
e 64 142
e 64 143
e 64 146
e 64 160
e 64 163
e 64 166
e 64 173
e 64 175
e 64 177
e 64 185
e 64 195
e 64 200
e 65 75
e 65 85
e 65 102
e 65 104
e 65 114
e 65 115
e 65 118
e 65 120
e 65 126
e 65 127
e 65 138
e 65 144
e 65 148
e 65 151
e 65 152
e 65 154
e 65 167
e 65 183
e 65 189
e 65 196
e 66 86
e 66 97
e 66 109
e 66 110
e 66 120
e 66 121
e 66 122
e 66 131
e 66 138
e 66 144
e 66 149
e 66 151
e 66 153
e 66 159
e 66 161
e 66 164
e 66 173
e 66 176
e 66 182
e 66 184
e 66 186
e 66 189
e 66 194
e 66 195
e 66 196
e 67 71
e 67 75
e 67 83
e 67 87
e 67 90
e 67 92
e 67 98
e 67 107
e 67 108
e 67 112
e 67 132
e 67 139
e 67 145
e 67 152
e 67 163
e 67 169
e 67 172
e 67 177
e 67 184
e 67 186
e 67 196
e 67 197
e 68 71
e 68 74
e 68 75
e 68 76
e 68 82
e 68 90
e 68 110
e 68 115
e 68 120
e 68 125
e 68 129
e 68 131
e 68 137
e 68 140
e 68 148
e 68 150
e 68 162
e 68 163
e 68 178
e 68 180
e 68 181
e 68 198
e 68 199
e 68 200
e 69 72
e 69 81
e 69 85
e 69 87
e 69 103
e 69 104
e 69 105
e 69 106
e 69 125
e 69 134
e 69 135
e 69 139
e 69 146
e 69 149
e 69 160
e 69 162
e 69 175
e 69 187
e 69 193
e 69 197
e 69 199
e 70 74
e 70 81
e 70 86
e 70 94
e 70 101
e 70 106
e 70 111
e 70 112
e 70 118
e 70 121
e 70 122
e 70 128
e 70 147
e 70 148
e 70 151
e 70 152
e 70 157
e 70 158
e 70 159
e 70 164
e 70 170
e 70 173
e 70 175
e 70 183
e 70 188
e 70 189
e 70 190
e 70 191
e 70 197
e 71 73
e 71 75
e 71 87
e 71 93
e 71 95
e 71 96
e 71 97
e 71 108
e 71 109
e 71 110
e 71 111
e 71 113
e 71 114
e 71 116
e 71 119
e 71 121
e 71 122
e 71 125
e 71 126
e 71 131
e 71 132
e 71 141
e 71 146
e 71 149
e 71 156
e 71 167
e 71 168
e 71 173
e 71 177
e 71 180
e 71 183
e 71 184
e 71 189
e 71 193
e 72 75
e 72 77
e 72 80
e 72 85
e 72 87
e 72 94
e 72 96
e 72 100
e 72 102
e 72 103
e 72 105
e 72 108
e 72 109
e 72 114
e 72 115
e 72 121
e 72 129
e 72 133
e 72 137
e 72 139
e 72 145
e 72 154
e 72 155
e 72 156
e 72 161
e 72 166
e 72 172
e 72 175
e 72 176
e 72 181
e 72 186
e 72 195
e 72 199
e 73 82
e 73 84
e 73 85
e 73 86
e 73 88
e 73 100
e 73 106
e 73 108
e 73 110
e 73 118
e 73 132
e 73 133
e 73 149
e 73 158
e 73 159
e 73 163
e 73 166
e 73 170
e 73 178
e 73 179
e 73 186
e 73 187
e 73 196
e 73 198
e 74 85
e 74 93
e 74 99
e 74 102
e 74 105
e 74 107
e 74 121
e 74 127
e 74 128
e 74 136
e 74 143
e 74 152
e 74 160
e 74 164
e 74 172
e 74 176
e 74 183
e 74 185
e 74 187
e 74 193
e 74 194
e 74 195
e 74 197
e 75 86
e 75 88
e 75 89
e 75 99
e 75 100
e 75 106
e 75 107
e 75 130
e 75 134
e 75 135
e 75 136
e 75 139
e 75 147
e 75 154
e 75 158
e 75 181
e 75 185
e 76 79
e 76 90
e 76 98
e 76 99
e 76 104
e 76 108
e 76 113
e 76 118
e 76 119
e 76 121
e 76 125
e 76 127
e 76 134
e 76 157
e 76 165
e 76 168
e 76 171
e 76 175
e 76 181
e 76 182
e 76 183
e 76 185
e 76 192
e 76 198
e 76 199
e 77 84
e 77 89
e 77 102
e 77 106
e 77 110
e 77 117
e 77 120
e 77 125
e 77 130
e 77 131
e 77 140
e 77 147
e 77 161
e 77 162
e 77 168
e 77 170
e 77 171
e 77 173
e 77 175
e 77 180
e 77 181
e 77 182
e 77 196
e 78 79
e 78 83
e 78 84
e 78 86
e 78 91
e 78 94
e 78 105
e 78 106
e 78 109
e 78 111
e 78 115
e 78 130
e 78 134
e 78 140
e 78 142
e 78 143
e 78 148
e 78 150
e 78 156
e 78 157
e 78 161
e 78 162
e 78 164
e 78 171
e 78 177
e 78 181
e 78 182
e 78 184
e 78 193
e 78 195
e 79 84
e 79 85
e 79 97
e 79 101
e 79 102
e 79 105
e 79 106
e 79 107
e 79 109
e 79 114
e 79 126
e 79 131
e 79 135
e 79 137
e 79 138
e 79 139
e 79 141
e 79 151
e 79 152
e 79 154
e 79 156
e 79 158
e 79 160
e 79 163
e 79 167
e 79 170
e 79 174
e 79 180
e 79 185
e 79 188
e 79 189
e 79 193
e 79 198
e 80 85
e 80 86
e 80 89
e 80 95
e 80 96
e 80 101
e 80 110
e 80 116
e 80 120
e 80 121
e 80 127
e 80 130
e 80 135
e 80 139
e 80 140
e 80 147
e 80 149
e 80 159
e 80 171
e 80 175
e 80 182
e 80 184
e 80 185
e 81 95
e 81 96
e 81 98
e 81 100
e 81 101
e 81 102
e 81 105
e 81 106
e 81 107
e 81 113
e 81 116
e 81 123
e 81 132
e 81 134
e 81 137
e 81 141
e 81 155
e 81 158
e 81 159
e 81 160
e 81 162
e 81 166
e 81 168
e 81 174
e 81 177
e 81 188
e 81 191
e 81 194
e 81 200
e 82 97
e 82 98
e 82 100
e 82 102
e 82 106
e 82 115
e 82 118
e 82 119
e 82 121
e 82 130
e 82 131
e 82 134
e 82 138
e 82 150
e 82 152
e 82 156
e 82 157
e 82 161
e 82 166
e 82 172
e 82 174
e 82 181
e 82 193
e 82 194
e 83 89
e 83 105
e 83 119
e 83 120
e 83 127
e 83 128
e 83 140
e 83 141
e 83 146
e 83 153
e 83 154
e 83 155
e 83 156
e 83 157
e 83 164
e 83 175
e 83 179
e 83 182
e 83 190
e 83 192
e 83 196
e 83 197
e 84 85
e 84 90
e 84 91
e 84 93
e 84 106
e 84 112
e 84 113
e 84 130
e 84 133
e 84 135
e 84 136
e 84 162
e 84 163
e 84 164
e 84 167
e 84 168
e 84 170
e 84 173
e 84 174
e 84 178
e 84 179
e 84 180
e 84 182
e 84 187
e 84 190
e 84 193
e 85 88
e 85 92
e 85 95
e 85 107
e 85 108
e 85 110
e 85 111
e 85 117
e 85 124
e 85 127
e 85 128
e 85 132
e 85 133
e 85 146
e 85 161
e 85 167
e 85 170
e 85 173
e 85 178
e 85 183
e 85 187
e 85 190
e 85 192
e 85 193
e 85 198
e 85 200
e 86 89
e 86 91
e 86 93
e 86 100
e 86 101
e 86 102
e 86 107
e 86 110
e 86 113
e 86 134
e 86 144
e 86 146
e 86 147
e 86 148
e 86 149
e 86 154
e 86 176
e 86 180
e 86 182
e 86 188
e 86 189
e 86 191
e 86 195
e 87 88
e 87 89
e 87 90
e 87 97
e 87 100
e 87 109
e 87 120
e 87 127
e 87 131
e 87 134
e 87 139
e 87 141
e 87 145
e 87 154
e 87 163
e 87 164
e 87 168
e 87 172
e 87 175
e 87 176
e 87 179
e 87 180
e 87 183
e 87 190
e 87 193
e 88 92
e 88 99
e 88 102
e 88 106
e 88 112
e 88 117
e 88 119
e 88 121
e 88 122
e 88 129
e 88 131
e 88 135
e 88 142
e 88 144
e 88 145
e 88 147
e 88 148
e 88 160
e 88 162
e 88 163
e 88 174
e 88 176
e 88 181
e 88 189
e 88 193
e 88 195
e 89 92
e 89 97
e 89 105
e 89 115
e 89 117
e 89 118
e 89 122
e 89 123
e 89 124
e 89 126
e 89 127
e 89 130
e 89 137
e 89 143
e 89 146
e 89 147
e 89 150
e 89 151
e 89 152
e 89 155
e 89 156
e 89 160
e 89 165
e 89 171
e 89 175
e 89 179
e 89 180
e 89 184
e 89 190
e 89 191
e 89 192
e 90 95
e 90 97
e 90 103
e 90 107
e 90 113
e 90 116
e 90 117
e 90 119
e 90 122
e 90 126
e 90 129
e 90 132
e 90 142
e 90 145
e 90 171
e 90 172
e 90 175
e 90 181
e 90 182
e 90 184
e 90 189
e 90 195
e 90 196
e 90 197
e 91 100
e 91 105
e 91 110
e 91 118
e 91 119
e 91 120
e 91 122
e 91 129
e 91 133
e 91 138
e 91 145
e 91 158
e 91 159
e 91 165
e 91 172
e 91 174
e 91 176
e 91 178
e 91 179
e 91 180
e 91 187
e 91 192
e 91 195
e 91 196
e 91 197
e 92 97
e 92 105
e 92 113
e 92 117
e 92 128
e 92 129
e 92 134
e 92 135
e 92 140
e 92 142
e 92 148
e 92 149
e 92 152
e 92 160
e 92 169
e 92 177
e 92 185
e 92 192
e 93 94
e 93 100
e 93 107
e 93 128
e 93 131
e 93 132
e 93 136
e 93 141
e 93 153
e 93 172
e 93 177
e 93 180
e 93 187
e 93 188
e 94 97
e 94 98
e 94 100
e 94 102
e 94 107
e 94 108
e 94 110
e 94 122
e 94 123
e 94 130
e 94 132
e 94 133
e 94 135
e 94 137
e 94 146
e 94 151
e 94 152
e 94 153
e 94 159
e 94 160
e 94 161
e 94 162
e 94 168
e 94 171
e 94 175
e 94 176
e 94 177
e 94 178
e 94 179
e 94 184
e 94 186
e 94 189
e 94 192
e 94 193
e 94 198
e 95 102
e 95 104
e 95 111
e 95 112
e 95 116
e 95 137
e 95 141
e 95 142
e 95 153
e 95 156
e 95 160
e 95 164
e 95 168
e 95 169
e 95 175
e 95 177
e 95 180
e 95 187
e 95 190
e 96 97
e 96 108
e 96 119
e 96 124
e 96 150
e 96 160
e 96 168
e 96 171
e 96 177
e 96 178
e 96 188
e 96 191
e 96 193
e 97 99
e 97 102
e 97 111
e 97 116
e 97 130
e 97 131
e 97 135
e 97 139
e 97 148
e 97 150
e 97 151
e 97 154
e 97 156
e 97 161
e 97 163
e 97 164
e 97 169
e 97 170
e 97 181
e 97 183
e 97 187
e 97 188
e 97 195
e 97 196
e 98 130
e 98 133
e 98 135
e 98 137
e 98 142
e 98 143
e 98 155
e 98 159
e 98 163
e 98 165
e 98 167
e 98 171
e 98 178
e 98 182
e 98 183
e 98 196
e 98 198
e 99 104
e 99 107
e 99 118
e 99 120
e 99 121
e 99 122
e 99 135
e 99 138
e 99 141
e 99 142
e 99 144
e 99 147
e 99 148
e 99 163
e 99 166
e 99 171
e 99 172
e 99 176
e 99 180
e 99 182
e 99 185
e 99 192
e 99 195
e 99 200
e 100 101
e 100 108
e 100 109
e 100 125
e 100 128
e 100 129
e 100 136
e 100 142
e 100 144
e 100 145
e 100 151
e 100 153
e 100 154
e 100 159
e 100 166
e 101 105
e 101 106
e 101 107
e 101 108
e 101 109
e 101 110
e 101 115
e 101 121
e 101 123
e 101 124
e 101 129
e 101 132
e 101 133
e 101 135
e 101 141
e 101 149
e 101 160
e 101 167
e 101 169
e 101 170
e 101 175
e 101 177
e 101 183
e 101 188
e 101 192
e 102 105
e 102 117
e 102 119
e 102 120
e 102 121
e 102 123
e 102 125
e 102 127
e 102 128
e 102 129
e 102 130
e 102 135
e 102 146
e 102 150
e 102 152
e 102 153
e 102 157
e 102 160
e 102 161
e 102 166
e 102 167
e 102 168
e 102 176
e 102 185
e 102 188
e 102 192
e 103 109
e 103 112
e 103 118
e 103 126
e 103 136
e 103 137
e 103 140
e 103 152
e 103 153
e 103 157
e 103 160
e 103 161
e 103 162
e 103 164
e 103 168
e 103 171
e 103 175
e 103 185
e 103 190
e 103 191
e 103 193
e 103 197
e 103 198
e 104 106
e 104 108
e 104 124
e 104 125
e 104 127
e 104 129
e 104 130
e 104 142
e 104 146
e 104 154
e 104 159
e 104 164
e 104 167
e 104 170
e 104 176
e 104 182
e 104 188
e 104 195
e 105 110
e 105 112
e 105 114
e 105 127
e 105 139
e 105 145
e 105 152
e 105 153
e 105 154
e 105 160
e 105 175
e 105 177
e 105 182
e 105 183
e 105 192
e 105 196
e 105 198
e 105 199
e 106 115
e 106 118
e 106 125
e 106 130
e 106 132
e 106 137
e 106 139
e 106 140
e 106 145
e 106 148
e 106 149
e 106 154
e 106 170
e 106 174
e 106 176
e 106 180
e 106 185
e 106 195
e 106 198
e 107 110
e 107 113
e 107 115
e 107 118
e 107 120
e 107 122
e 107 131
e 107 136
e 107 142
e 107 145
e 107 150
e 107 170
e 107 173
e 107 174
e 107 178
e 107 188
e 107 189
e 107 190
e 107 199
e 108 110
e 108 113
e 108 116
e 108 119
e 108 124
e 108 129
e 108 131
e 108 139
e 108 141
e 108 157
e 108 171
e 108 174
e 108 176
e 108 177
e 108 182
e 108 183
e 108 185
e 108 188
e 108 190
e 108 194
e 109 111
e 109 112
e 109 140
e 109 142
e 109 152
e 109 154
e 109 156
e 109 164
e 109 177
e 109 179
e 109 181
e 109 183
e 110 112
e 110 114
e 110 119
e 110 120
e 110 122
e 110 124
e 110 125
e 110 126
e 110 130
e 110 136
e 110 154
e 110 158
e 110 163
e 110 178
e 110 180
e 110 185
e 111 112
e 111 117
e 111 118
e 111 119
e 111 125
e 111 126
e 111 129
e 111 133
e 111 134
e 111 138
e 111 141
e 111 144
e 111 146
e 111 160
e 111 161
e 111 163
e 111 167
e 111 178
e 111 185
e 111 188
e 111 192
e 112 119
e 112 123
e 112 126
e 112 127
e 112 128
e 112 132
e 112 134
e 112 135
e 112 136
e 112 145
e 112 146
e 112 149
e 112 155
e 112 157
e 112 158
e 112 161
e 112 170
e 112 173
e 112 174
e 112 179
e 112 193
e 113 120
e 113 121
e 113 126
e 113 127
e 113 136
e 113 141
e 113 149
e 113 152
e 113 163
e 113 170
e 113 175
e 113 188
e 113 190
e 113 198
e 113 200
e 114 115
e 114 120
e 114 137
e 114 138
e 114 140
e 114 141
e 114 142
e 114 146
e 114 151
e 114 152
e 114 167
e 114 168
e 114 173
e 114 174
e 114 178
e 114 186
e 114 190
e 114 197
e 114 198
e 115 122
e 115 129
e 115 130
e 115 131
e 115 135
e 115 136
e 115 137
e 115 138
e 115 141
e 115 145
e 115 150
e 115 165
e 115 173
e 115 177
e 115 178
e 116 120
e 116 129
e 116 132
e 116 143
e 116 145
e 116 146
e 116 151
e 116 153
e 116 157
e 116 159
e 116 161
e 116 163
e 116 166
e 116 168
e 116 175
e 116 178
e 116 189
e 116 195
e 116 200
e 117 119
e 117 126
e 117 127
e 117 130
e 117 136
e 117 138
e 117 142
e 117 144
e 117 147
e 117 155
e 117 160
e 117 163
e 117 184
e 117 197
e 118 122
e 118 126
e 118 129
e 118 135
e 118 137
e 118 139
e 118 146
e 118 154
e 118 158
e 118 161
e 118 171
e 118 172
e 118 180
e 118 183
e 118 190
e 118 191
e 118 199
e 119 128
e 119 129
e 119 138
e 119 139
e 119 147
e 119 149
e 119 161
e 119 171
e 119 175
e 119 177
e 119 179
e 119 191
e 119 192
e 120 134
e 120 138
e 120 141
e 120 144
e 120 149
e 120 160
e 120 163
e 120 164
e 120 165
e 120 174
e 120 176
e 120 179
e 120 185
e 120 188
e 121 122
e 121 123
e 121 124
e 121 127
e 121 131
e 121 140
e 121 144
e 121 147
e 121 155
e 121 159
e 121 162
e 121 167
e 121 176
e 121 180
e 121 183
e 121 186
e 121 189
e 121 197
e 122 125
e 122 130
e 122 131
e 122 132
e 122 135
e 122 136
e 122 147
e 122 166
e 122 176
e 122 191
e 122 194
e 122 196
e 123 124
e 123 126
e 123 129
e 123 131
e 123 138
e 123 139
e 123 152
e 123 153
e 123 157
e 123 167
e 123 172
e 123 174
e 123 176
e 123 193
e 123 194
e 123 198
e 124 126
e 124 129
e 124 132
e 124 137
e 124 142
e 124 144
e 124 151
e 124 153
e 124 154
e 124 158
e 124 163
e 124 164
e 124 175
e 124 181
e 124 185
e 124 193
e 124 194
e 125 141
e 125 144
e 125 145
e 125 147
e 125 148
e 125 149
e 125 150
e 125 153
e 125 155
e 125 164
e 125 169
e 125 181
e 125 186
e 126 130
e 126 134
e 126 136
e 126 137
e 126 139
e 126 142
e 126 148
e 126 163
e 126 178
e 126 187
e 126 193
e 126 197
e 127 128
e 127 138
e 127 139
e 127 144
e 127 145
e 127 147
e 127 151
e 127 155
e 127 156
e 127 164
e 127 168
e 127 173
e 127 177
e 127 181
e 127 182
e 127 183
e 127 186
e 127 190
e 127 200
e 128 131
e 128 135
e 128 137
e 128 141
e 128 143
e 128 148
e 128 149
e 128 154
e 128 160
e 128 161
e 128 164
e 128 165
e 128 172
e 128 173
e 128 181
e 128 187
e 128 194
e 128 195
e 128 200
e 129 136
e 129 137
e 129 141
e 129 151
e 129 152
e 129 153
e 129 169
e 129 173
e 129 179
e 129 189
e 129 193
e 129 194
e 129 195
e 129 198
e 129 200
e 130 131
e 130 134
e 130 135
e 130 137
e 130 153
e 130 154
e 130 155
e 130 157
e 130 158
e 130 161
e 130 171
e 130 174
e 130 176
e 130 177
e 130 178
e 130 181
e 130 186
e 130 189
e 130 195
e 131 136
e 131 142
e 131 145
e 131 150
e 131 153
e 131 157
e 131 159
e 131 178
e 131 180
e 131 181
e 131 184
e 131 188
e 131 189
e 131 191
e 131 192
e 131 193
e 131 195
e 132 134
e 132 136
e 132 144
e 132 149
e 132 154
e 132 156
e 132 159
e 132 160
e 132 161
e 132 167
e 132 187
e 132 199
e 133 136
e 133 143
e 133 155
e 133 156
e 133 161
e 133 162
e 133 175
e 133 177
e 133 184
e 133 185
e 133 189
e 133 191
e 133 195
e 133 197
e 134 142
e 134 144
e 134 146
e 134 151
e 134 155
e 134 161
e 134 163
e 134 172
e 134 173
e 134 175
e 134 178
e 135 140
e 135 142
e 135 145
e 135 152
e 135 154
e 135 156
e 135 158
e 135 168
e 135 174
e 135 175
e 135 179
e 135 189
e 135 199
e 136 138
e 136 146
e 136 148
e 136 153
e 136 160
e 136 165
e 136 167
e 136 171
e 136 174
e 136 179
e 136 186
e 136 187
e 136 191
e 136 192
e 136 198
e 137 147
e 137 167
e 137 170
e 137 171
e 137 172
e 137 177
e 137 181
e 137 190
e 137 191
e 137 193
e 138 143
e 138 147
e 138 165
e 138 166
e 138 169
e 138 177
e 138 178
e 138 196
e 139 142
e 139 150
e 139 151
e 139 153
e 139 154
e 139 159
e 139 165
e 139 166
e 139 172
e 139 175
e 139 177
e 139 180
e 139 183
e 139 190
e 139 193
e 140 143
e 140 144
e 140 145
e 140 153
e 140 156
e 140 161
e 140 165
e 140 177
e 140 183
e 140 185
e 140 200
e 141 142
e 141 159
e 141 160
e 141 163
e 141 167
e 141 172
e 141 177
e 141 182
e 141 183
e 141 185
e 141 190
e 141 192
e 141 195
e 141 196
e 141 199
e 142 147
e 142 151
e 142 153
e 142 155
e 142 156
e 142 165
e 142 168
e 142 172
e 142 181
e 142 196
e 143 146
e 143 151
e 143 163
e 143 164
e 143 171
e 143 179
e 143 180
e 143 188
e 143 192
e 143 193
e 143 194
e 143 196
e 143 200
e 144 150
e 144 155
e 144 161
e 144 166
e 144 172
e 144 176
e 144 177
e 144 183
e 144 184
e 144 185
e 144 197
e 144 198
e 145 153
e 145 157
e 145 162
e 145 163
e 145 168
e 145 184
e 145 185
e 145 186
e 145 195
e 145 200
e 146 149
e 146 153
e 146 154
e 146 163
e 146 164
e 146 169
e 146 170
e 146 172
e 146 173
e 146 176
e 146 181
e 146 183
e 146 187
e 146 200
e 147 152
e 147 156
e 147 159
e 147 161
e 147 164
e 147 174
e 147 177
e 147 188
e 147 192
e 147 197
e 147 198
e 148 150
e 148 158
e 148 162
e 148 164
e 148 171
e 148 172
e 148 175
e 148 179
e 148 181
e 148 188
e 148 200
e 149 150
e 149 151
e 149 156
e 149 161
e 149 170
e 149 174
e 149 176
e 149 180
e 149 189
e 149 190
e 150 152
e 150 158
e 150 160
e 150 162
e 150 173
e 150 182
e 150 183
e 150 187
e 150 192
e 150 193
e 151 154
e 151 156
e 151 159
e 151 161
e 151 166
e 151 168
e 151 178
e 151 184
e 151 186
e 152 153
e 152 154
e 152 160
e 152 167
e 152 171
e 152 172
e 152 173
e 152 182
e 152 183
e 152 185
e 152 188
e 152 192
e 152 195
e 152 197
e 152 198
e 153 163
e 153 165
e 153 171
e 153 181
e 153 186
e 153 187
e 153 193
e 154 156
e 154 157
e 154 158
e 154 159
e 154 161
e 154 165
e 154 170
e 154 171
e 154 174
e 154 190
e 154 196
e 154 200
e 155 162
e 155 170
e 155 171
e 155 174
e 155 176
e 155 179
e 155 182
e 155 189
e 155 193
e 156 157
e 156 161
e 156 178
e 156 190
e 156 192
e 156 198
e 157 160
e 157 161
e 157 166
e 157 169
e 157 170
e 157 184
e 157 189
e 158 161
e 158 162
e 158 164
e 158 168
e 158 174
e 158 184
e 158 186
e 158 187
e 158 189
e 158 200
e 159 179
e 159 181
e 159 185
e 159 190
e 159 200
e 160 163
e 160 164
e 160 165
e 160 176
e 160 182
e 160 186
e 160 197
e 160 200
e 161 164
e 161 171
e 161 181
e 161 190
e 162 169
e 162 179
e 162 188
e 162 190
e 162 193
e 163 165
e 163 166
e 163 183
e 163 186
e 163 198
e 164 165
e 164 166
e 164 171
e 164 176
e 164 182
e 164 198
e 165 167
e 165 175
e 165 183
e 165 186
e 165 189
e 165 191
e 165 196
e 165 197
e 165 200
e 166 170
e 166 182
e 166 184
e 166 187
e 166 190
e 166 194
e 166 196
e 166 198
e 166 199
e 167 172
e 167 175
e 167 178
e 167 181
e 167 187
e 167 193
e 167 195
e 168 173
e 168 175
e 168 178
e 168 190
e 168 193
e 168 198
e 168 200
e 169 172
e 169 178
e 169 179
e 169 180
e 169 191
e 169 194
e 169 195
e 169 196
e 169 200
e 170 171
e 170 182
e 170 183
e 170 185
e 170 192
e 171 175
e 171 177
e 171 179
e 171 183
e 171 189
e 171 197
e 172 174
e 172 177
e 172 186
e 172 196
e 172 198
e 172 200
e 173 176
e 173 177
e 173 186
e 173 188
e 173 189
e 173 190
e 173 192
e 173 193
e 173 195
e 173 197
e 174 178
e 174 181
e 174 182
e 174 185
e 174 186
e 174 192
e 175 178
e 175 189
e 175 190
e 175 199
e 176 181
e 177 189
e 177 190
e 177 198
e 178 184
e 178 185
e 178 198
e 179 180
e 179 184
e 179 187
e 179 188
e 179 192
e 179 200
e 180 182
e 180 187
e 180 189
e 181 183
e 182 186
e 182 192
e 182 196
e 183 194
e 184 195
e 184 196
e 184 198
e 184 199
e 184 200
e 185 192
e 186 188
e 187 189
e 188 193
e 188 195
e 189 195
e 189 196
e 189 200
e 190 194
e 190 199
e 191 198
e 192 196
e 193 195
e 193 197
e 194 196
e 197 199
e 197 200
e 199 200